100
128
44
37
46
55
30
9
6
20
61
38
54
53
45
46
13
21
64
39
13
49
25
19
34
57
58
48
43
16
8
39
63
14
26
52
23
62
55
26
6
31
59
40
29
12
14
14
44
54
14
20
25
18
18
27
41
4
24
9
19
43
41
22
21
44
22
27
21
60
32
23
9
27
29
38
20
2
42
3
22
50
52
3
64
25
32
6
48
34
46
51
36
25
25
9
17
63
7
40
31
34